GLPSOL: GLPK LP/MIP Solver, v4.65
Parameter(s) specified in the command line:
 --model solver_drone.mod --data solver_drone_data_10.dat --output solver_drone_solution_10_8.log
 --log solver_drone_cmd_output_10_8.log --tmlim 45
Reading model section from solver_drone.mod...
41 lines were read
Reading data section from solver_drone_data_10.dat...
37 lines were read
Generating f...
Generating package_deliverd_once...
Generating package_well_delivered...
Generating time_spent_flying...
Generating autonomy_not_exceeded...
Generating check_time_max...
Model has been successfully generated
GLPK Integer Optimizer, v4.65
1367 rows, 1329 columns, 4105 non-zeros
1329 integer variables, 1320 of which are binary
Preprocessing...
46 rows, 1329 columns, 2784 non-zeros
1329 integer variables, 1320 of which are binary
Scaling...
 A: min|aij| =  1.000e+00  max|aij| =  3.088e+03  ratio =  3.088e+03
GM: min|aij| =  5.550e-01  max|aij| =  1.802e+00  ratio =  3.246e+00
EQ: min|aij| =  3.081e-01  max|aij| =  1.000e+00  ratio =  3.246e+00
2N: min|aij| =  2.500e-01  max|aij| =  1.031e+00  ratio =  4.125e+00
Constructing initial basis...
Size of triangular part is 46
Solving LP relaxation...
GLPK Simplex Optimizer, v4.65
46 rows, 1329 columns, 2784 non-zeros
      0: obj =   0.000000000e+00 inf =   7.048e+02 (1)
     49: obj =   2.819000000e+03 inf =   5.329e-14 (0)
*    62: obj =   2.819000000e+03 inf =   5.329e-14 (0)
OPTIMAL LP SOLUTION FOUND
Integer optimization begins...
Long-step dual simplex will be used
+    62: mip =     not found yet >=              -inf        (1; 0)
+   514: >>>>>   3.848000000e+03 >=   2.819000000e+03  26.7% (45; 0)
+   708: >>>>>   3.728000000e+03 >=   2.819000000e+03  24.4% (47; 18)
+  1067: >>>>>   3.600000000e+03 >=   2.819000000e+03  21.7% (57; 37)
+  1361: >>>>>   3.352000000e+03 >=   2.819000000e+03  15.9% (70; 57)
+  1580: >>>>>   3.232000000e+03 >=   2.819000000e+03  12.8% (80; 69)
+  1782: >>>>>   3.224000000e+03 >=   2.819000000e+03  12.6% (60; 132)
+ 55754: mip =   3.224000000e+03 >=   2.819000000e+03  12.6% (3088; 646)
+108516: mip =   3.224000000e+03 >=   2.819000000e+03  12.6% (5780; 1247)
+159473: mip =   3.224000000e+03 >=   2.819000000e+03  12.6% (8569; 1767)
+208646: mip =   3.224000000e+03 >=   2.819000000e+03  12.6% (11238; 2240)
+255075: mip =   3.224000000e+03 >=   2.819000000e+03  12.6% (13848; 2687)
+297837: mip =   3.224000000e+03 >=   2.819000000e+03  12.6% (16070; 3195)
+334401: mip =   3.224000000e+03 >=   2.819000000e+03  12.6% (18030; 3739)
+368269: mip =   3.224000000e+03 >=   2.819000000e+03  12.6% (19693; 4143)
+403494: mip =   3.224000000e+03 >=   2.819000000e+03  12.6% (21496; 4587)
TIME LIMIT EXCEEDED; SEARCH TERMINATED
Time used:   45.0 secs
Memory used: 105.3 Mb (110383638 bytes)
The package 1 is delivered by the drone 4 to the house 1
The package 2 is delivered by the drone 7 to the house 1
The package 3 is delivered by the drone 8 to the house 1
The package 4 is delivered by the drone 1 to the house 2
The package 5 is delivered by the drone 7 to the house 2
The package 6 is delivered by the drone 8 to the house 2
The package 7 is delivered by the drone 5 to the house 3
The package 8 is delivered by the drone 2 to the house 4
The package 9 is delivered by the drone 2 to the house 6
The package 10 is delivered by the drone 6 to the house 7
The package 11 is delivered by the drone 4 to the house 8
The package 12 is delivered by the drone 2 to the house 8
The package 13 is delivered by the drone 1 to the house 9
The package 14 is delivered by the drone 3 to the house 10
The package 15 is delivered by the drone 5 to the house 10
Model has been successfully processed
Writing MIP solution to 'solver_drone_solution_10_8.log'...
